; benchmark generated from python API
(set-info :status unknown)
(declare-fun stdin0 () (_ BitVec 8))
(declare-fun stdin1 () (_ BitVec 8))
(declare-fun stdin2 () (_ BitVec 8))
(declare-fun stdin3 () (_ BitVec 8))
(declare-fun stdin4 () (_ BitVec 8))
(declare-fun stdin5 () (_ BitVec 8))
(declare-fun stdin6 () (_ BitVec 8))
(declare-fun stdin7 () (_ BitVec 8))
(assert
 (not (= ((_ zero_extend 16) (concat stdin1 stdin0)) (_ bv19789 32))))
(assert
 (not (not (= ((_ zero_extend 16) (concat stdin1 stdin0)) (_ bv18761 32)))))
(assert
 (not (= ((_ zero_extend 16) (concat stdin1 stdin0)) (_ bv19789 32))))
(assert
 (not (not (= ((_ zero_extend 16) (concat stdin3 stdin2)) (_ bv42 32)))))
(assert
 (= ((_ zero_extend 16) (concat stdin3 stdin2)) (_ bv42 32)))
(assert
 (let ((?x101767 ((_ zero_extend 32) (concat stdin7 (concat stdin6 (concat stdin5 stdin4))))))
 (let ((?x244833 (concat ((_ extract 31 24) ?x101767) (concat ((_ extract 23 16) ?x101767) (concat ((_ extract 15 8) ?x101767) ((_ extract 7 0) ?x101767))))))
 (let ((?x79498 (concat ((_ extract 55 48) ?x101767) (concat ((_ extract 47 40) ?x101767) (concat ((_ extract 39 32) ?x101767) ?x244833)))))
 (let ((?x295885 (concat ((_ extract 63 56) ?x101767) ?x79498)))
 (let ((?x252914 (concat ((_ extract 31 24) ?x295885) (concat ((_ extract 23 16) ?x295885) (concat ((_ extract 15 8) ?x295885) ((_ extract 7 0) ?x295885))))))
 (let ((?x379234 (concat ((_ extract 55 48) ?x295885) (concat ((_ extract 47 40) ?x295885) (concat ((_ extract 39 32) ?x295885) ?x252914)))))
 (let ((?x7270 (concat ((_ extract 63 56) ?x295885) ?x379234)))
 (not (= ?x7270 (_ bv0 64)))))))))))
(assert
 (let ((?x101767 ((_ zero_extend 32) (concat stdin7 (concat stdin6 (concat stdin5 stdin4))))))
 (let ((?x244833 (concat ((_ extract 31 24) ?x101767) (concat ((_ extract 23 16) ?x101767) (concat ((_ extract 15 8) ?x101767) ((_ extract 7 0) ?x101767))))))
 (let ((?x79498 (concat ((_ extract 55 48) ?x101767) (concat ((_ extract 47 40) ?x101767) (concat ((_ extract 39 32) ?x101767) ?x244833)))))
 (let ((?x295885 (concat ((_ extract 63 56) ?x101767) ?x79498)))
 (let ((?x252914 (concat ((_ extract 31 24) ?x295885) (concat ((_ extract 23 16) ?x295885) (concat ((_ extract 15 8) ?x295885) ((_ extract 7 0) ?x295885))))))
 (let ((?x379234 (concat ((_ extract 55 48) ?x295885) (concat ((_ extract 47 40) ?x295885) (concat ((_ extract 39 32) ?x295885) ?x252914)))))
 (let ((?x7270 (concat ((_ extract 63 56) ?x295885) ?x379234)))
 (let ((?x260252 (concat ((_ extract 31 24) ?x7270) (concat ((_ extract 23 16) ?x7270) (concat ((_ extract 15 8) ?x7270) ((_ extract 7 0) ?x7270))))))
 (let ((?x268026 (concat ((_ extract 55 48) ?x7270) (concat ((_ extract 47 40) ?x7270) (concat ((_ extract 39 32) ?x7270) ?x260252)))))
 (let ((?x339629 (concat ((_ extract 63 56) ?x7270) ?x268026)))
 (let ((?x79756 (concat ((_ extract 31 24) ?x339629) (concat ((_ extract 23 16) ?x339629) (concat ((_ extract 15 8) ?x339629) ((_ extract 7 0) ?x339629))))))
 (let ((?x24660 (concat ((_ extract 55 48) ?x339629) (concat ((_ extract 47 40) ?x339629) (concat ((_ extract 39 32) ?x339629) ?x79756)))))
 (let ((?x147847 (concat ((_ extract 63 56) ?x339629) ?x24660)))
 (not (bvugt ?x147847 (_ bv9223372036854775807 64)))))))))))))))))
(assert
 (let ((?x101767 ((_ zero_extend 32) (concat stdin7 (concat stdin6 (concat stdin5 stdin4))))))
 (let ((?x244833 (concat ((_ extract 31 24) ?x101767) (concat ((_ extract 23 16) ?x101767) (concat ((_ extract 15 8) ?x101767) ((_ extract 7 0) ?x101767))))))
 (let ((?x79498 (concat ((_ extract 55 48) ?x101767) (concat ((_ extract 47 40) ?x101767) (concat ((_ extract 39 32) ?x101767) ?x244833)))))
 (let ((?x295885 (concat ((_ extract 63 56) ?x101767) ?x79498)))
 (let ((?x252914 (concat ((_ extract 31 24) ?x295885) (concat ((_ extract 23 16) ?x295885) (concat ((_ extract 15 8) ?x295885) ((_ extract 7 0) ?x295885))))))
 (let ((?x379234 (concat ((_ extract 55 48) ?x295885) (concat ((_ extract 47 40) ?x295885) (concat ((_ extract 39 32) ?x295885) ?x252914)))))
 (let ((?x7270 (concat ((_ extract 63 56) ?x295885) ?x379234)))
 (let ((?x260252 (concat ((_ extract 31 24) ?x7270) (concat ((_ extract 23 16) ?x7270) (concat ((_ extract 15 8) ?x7270) ((_ extract 7 0) ?x7270))))))
 (let ((?x268026 (concat ((_ extract 55 48) ?x7270) (concat ((_ extract 47 40) ?x7270) (concat ((_ extract 39 32) ?x7270) ?x260252)))))
 (let ((?x339629 (concat ((_ extract 63 56) ?x7270) ?x268026)))
 (let ((?x79756 (concat ((_ extract 31 24) ?x339629) (concat ((_ extract 23 16) ?x339629) (concat ((_ extract 15 8) ?x339629) ((_ extract 7 0) ?x339629))))))
 (let ((?x24660 (concat ((_ extract 55 48) ?x339629) (concat ((_ extract 47 40) ?x339629) (concat ((_ extract 39 32) ?x339629) ?x79756)))))
 (let ((?x147847 (concat ((_ extract 63 56) ?x339629) ?x24660)))
 (let ((?x204174 (concat ((_ extract 31 24) ?x147847) (concat ((_ extract 23 16) ?x147847) (concat ((_ extract 15 8) ?x147847) ((_ extract 7 0) ?x147847))))))
 (let ((?x309692 (concat ((_ extract 55 48) ?x147847) (concat ((_ extract 47 40) ?x147847) (concat ((_ extract 39 32) ?x147847) ?x204174)))))
 (let ((?x245395 (concat ((_ extract 63 56) ?x147847) ?x309692)))
 (let ((?x246047 (concat ((_ extract 23 16) (bvadd ?x245395 (_ bv2 64))) (concat ((_ extract 15 8) (bvadd ?x245395 (_ bv2 64))) ((_ extract 7 0) (bvadd ?x245395 (_ bv2 64)))))))
 (let ((?x74991 (concat ((_ extract 39 32) (bvadd ?x245395 (_ bv2 64))) (concat ((_ extract 31 24) (bvadd ?x245395 (_ bv2 64))) ?x246047))))
 (let ((?x130076 (concat ((_ extract 55 48) (bvadd ?x245395 (_ bv2 64))) (concat ((_ extract 47 40) (bvadd ?x245395 (_ bv2 64))) ?x74991))))
 (let ((?x11377 (concat ((_ extract 63 56) (bvadd ?x245395 (_ bv2 64))) ?x130076)))
 (not (bvslt ?x11377 ?x245395)))))))))))))))))))))))
(assert
 (let ((?x101767 ((_ zero_extend 32) (concat stdin7 (concat stdin6 (concat stdin5 stdin4))))))
 (let ((?x244833 (concat ((_ extract 31 24) ?x101767) (concat ((_ extract 23 16) ?x101767) (concat ((_ extract 15 8) ?x101767) ((_ extract 7 0) ?x101767))))))
 (let ((?x79498 (concat ((_ extract 55 48) ?x101767) (concat ((_ extract 47 40) ?x101767) (concat ((_ extract 39 32) ?x101767) ?x244833)))))
 (let ((?x295885 (concat ((_ extract 63 56) ?x101767) ?x79498)))
 (let ((?x252914 (concat ((_ extract 31 24) ?x295885) (concat ((_ extract 23 16) ?x295885) (concat ((_ extract 15 8) ?x295885) ((_ extract 7 0) ?x295885))))))
 (let ((?x379234 (concat ((_ extract 55 48) ?x295885) (concat ((_ extract 47 40) ?x295885) (concat ((_ extract 39 32) ?x295885) ?x252914)))))
 (let ((?x7270 (concat ((_ extract 63 56) ?x295885) ?x379234)))
 (let ((?x260252 (concat ((_ extract 31 24) ?x7270) (concat ((_ extract 23 16) ?x7270) (concat ((_ extract 15 8) ?x7270) ((_ extract 7 0) ?x7270))))))
 (let ((?x268026 (concat ((_ extract 55 48) ?x7270) (concat ((_ extract 47 40) ?x7270) (concat ((_ extract 39 32) ?x7270) ?x260252)))))
 (let ((?x339629 (concat ((_ extract 63 56) ?x7270) ?x268026)))
 (let ((?x79756 (concat ((_ extract 31 24) ?x339629) (concat ((_ extract 23 16) ?x339629) (concat ((_ extract 15 8) ?x339629) ((_ extract 7 0) ?x339629))))))
 (let ((?x24660 (concat ((_ extract 55 48) ?x339629) (concat ((_ extract 47 40) ?x339629) (concat ((_ extract 39 32) ?x339629) ?x79756)))))
 (let ((?x147847 (concat ((_ extract 63 56) ?x339629) ?x24660)))
 (let ((?x204174 (concat ((_ extract 31 24) ?x147847) (concat ((_ extract 23 16) ?x147847) (concat ((_ extract 15 8) ?x147847) ((_ extract 7 0) ?x147847))))))
 (let ((?x309692 (concat ((_ extract 55 48) ?x147847) (concat ((_ extract 47 40) ?x147847) (concat ((_ extract 39 32) ?x147847) ?x204174)))))
 (let ((?x245395 (concat ((_ extract 63 56) ?x147847) ?x309692)))
 (let ((?x320857 (bvadd ?x245395 (_ bv2 64))))
 (let ((?x35872 (concat ((_ extract 31 24) ?x320857) (concat ((_ extract 23 16) ?x320857) (concat ((_ extract 15 8) ?x320857) ((_ extract 7 0) ?x320857))))))
 (let ((?x130076 (concat ((_ extract 55 48) ?x320857) (concat ((_ extract 47 40) ?x320857) (concat ((_ extract 39 32) ?x320857) ?x35872)))))
 (let ((?x11377 (concat ((_ extract 63 56) ?x320857) ?x130076)))
 (not (bvslt ?x11377 (_ bv2 64))))))))))))))))))))))))
(assert
 (let ((?x101767 ((_ zero_extend 32) (concat stdin7 (concat stdin6 (concat stdin5 stdin4))))))
 (let ((?x244833 (concat ((_ extract 31 24) ?x101767) (concat ((_ extract 23 16) ?x101767) (concat ((_ extract 15 8) ?x101767) ((_ extract 7 0) ?x101767))))))
 (let ((?x79498 (concat ((_ extract 55 48) ?x101767) (concat ((_ extract 47 40) ?x101767) (concat ((_ extract 39 32) ?x101767) ?x244833)))))
 (let ((?x295885 (concat ((_ extract 63 56) ?x101767) ?x79498)))
 (let ((?x252914 (concat ((_ extract 31 24) ?x295885) (concat ((_ extract 23 16) ?x295885) (concat ((_ extract 15 8) ?x295885) ((_ extract 7 0) ?x295885))))))
 (let ((?x379234 (concat ((_ extract 55 48) ?x295885) (concat ((_ extract 47 40) ?x295885) (concat ((_ extract 39 32) ?x295885) ?x252914)))))
 (let ((?x7270 (concat ((_ extract 63 56) ?x295885) ?x379234)))
 (let ((?x260252 (concat ((_ extract 31 24) ?x7270) (concat ((_ extract 23 16) ?x7270) (concat ((_ extract 15 8) ?x7270) ((_ extract 7 0) ?x7270))))))
 (let ((?x268026 (concat ((_ extract 55 48) ?x7270) (concat ((_ extract 47 40) ?x7270) (concat ((_ extract 39 32) ?x7270) ?x260252)))))
 (let ((?x339629 (concat ((_ extract 63 56) ?x7270) ?x268026)))
 (let ((?x79756 (concat ((_ extract 31 24) ?x339629) (concat ((_ extract 23 16) ?x339629) (concat ((_ extract 15 8) ?x339629) ((_ extract 7 0) ?x339629))))))
 (let ((?x24660 (concat ((_ extract 55 48) ?x339629) (concat ((_ extract 47 40) ?x339629) (concat ((_ extract 39 32) ?x339629) ?x79756)))))
 (let ((?x147847 (concat ((_ extract 63 56) ?x339629) ?x24660)))
 (let ((?x204174 (concat ((_ extract 31 24) ?x147847) (concat ((_ extract 23 16) ?x147847) (concat ((_ extract 15 8) ?x147847) ((_ extract 7 0) ?x147847))))))
 (let ((?x309692 (concat ((_ extract 55 48) ?x147847) (concat ((_ extract 47 40) ?x147847) (concat ((_ extract 39 32) ?x147847) ?x204174)))))
 (let ((?x245395 (concat ((_ extract 63 56) ?x147847) ?x309692)))
 (let ((?x320857 (bvadd ?x245395 (_ bv2 64))))
 (let ((?x35872 (concat ((_ extract 31 24) ?x320857) (concat ((_ extract 23 16) ?x320857) (concat ((_ extract 15 8) ?x320857) ((_ extract 7 0) ?x320857))))))
 (let ((?x130076 (concat ((_ extract 55 48) ?x320857) (concat ((_ extract 47 40) ?x320857) (concat ((_ extract 39 32) ?x320857) ?x35872)))))
 (let ((?x11377 (concat ((_ extract 63 56) ?x320857) ?x130076)))
 (not (bvsgt ?x11377 (_ bv8390 64))))))))))))))))))))))))
(assert
 (let ((?x101767 ((_ zero_extend 32) (concat stdin7 (concat stdin6 (concat stdin5 stdin4))))))
 (let ((?x244833 (concat ((_ extract 31 24) ?x101767) (concat ((_ extract 23 16) ?x101767) (concat ((_ extract 15 8) ?x101767) ((_ extract 7 0) ?x101767))))))
 (let ((?x79498 (concat ((_ extract 55 48) ?x101767) (concat ((_ extract 47 40) ?x101767) (concat ((_ extract 39 32) ?x101767) ?x244833)))))
 (let ((?x295885 (concat ((_ extract 63 56) ?x101767) ?x79498)))
 (let ((?x252914 (concat ((_ extract 31 24) ?x295885) (concat ((_ extract 23 16) ?x295885) (concat ((_ extract 15 8) ?x295885) ((_ extract 7 0) ?x295885))))))
 (let ((?x379234 (concat ((_ extract 55 48) ?x295885) (concat ((_ extract 47 40) ?x295885) (concat ((_ extract 39 32) ?x295885) ?x252914)))))
 (let ((?x7270 (concat ((_ extract 63 56) ?x295885) ?x379234)))
 (let ((?x260252 (concat ((_ extract 31 24) ?x7270) (concat ((_ extract 23 16) ?x7270) (concat ((_ extract 15 8) ?x7270) ((_ extract 7 0) ?x7270))))))
 (let ((?x268026 (concat ((_ extract 55 48) ?x7270) (concat ((_ extract 47 40) ?x7270) (concat ((_ extract 39 32) ?x7270) ?x260252)))))
 (let ((?x339629 (concat ((_ extract 63 56) ?x7270) ?x268026)))
 (let ((?x79756 (concat ((_ extract 31 24) ?x339629) (concat ((_ extract 23 16) ?x339629) (concat ((_ extract 15 8) ?x339629) ((_ extract 7 0) ?x339629))))))
 (let ((?x24660 (concat ((_ extract 55 48) ?x339629) (concat ((_ extract 47 40) ?x339629) (concat ((_ extract 39 32) ?x339629) ?x79756)))))
 (let ((?x147847 (concat ((_ extract 63 56) ?x339629) ?x24660)))
 (let ((?x204174 (concat ((_ extract 31 24) ?x147847) (concat ((_ extract 23 16) ?x147847) (concat ((_ extract 15 8) ?x147847) ((_ extract 7 0) ?x147847))))))
 (let ((?x309692 (concat ((_ extract 55 48) ?x147847) (concat ((_ extract 47 40) ?x147847) (concat ((_ extract 39 32) ?x147847) ?x204174)))))
 (let ((?x245395 (concat ((_ extract 63 56) ?x147847) ?x309692)))
 (let ((?x28215 (bvmul ?x245395 (_ bv1 64))))
 (let ((?x295707 (bvadd ?x28215 (_ bv140653990457344 64))))
 (let ((?x241 (concat ((_ extract 31 24) ?x295707) (concat ((_ extract 23 16) ?x295707) (concat ((_ extract 15 8) ?x295707) ((_ extract 7 0) ?x295707))))))
 (let ((?x52160 (concat ((_ extract 55 48) ?x295707) (concat ((_ extract 47 40) ?x295707) (concat ((_ extract 39 32) ?x295707) ?x241)))))
 (= (concat ((_ extract 63 56) ?x295707) ?x52160) (_ bv140653990465574 64)))))))))))))))))))))))
(assert
 (let ((?x101767 ((_ zero_extend 32) (concat stdin7 (concat stdin6 (concat stdin5 stdin4))))))
 (let ((?x244833 (concat ((_ extract 31 24) ?x101767) (concat ((_ extract 23 16) ?x101767) (concat ((_ extract 15 8) ?x101767) ((_ extract 7 0) ?x101767))))))
 (let ((?x79498 (concat ((_ extract 55 48) ?x101767) (concat ((_ extract 47 40) ?x101767) (concat ((_ extract 39 32) ?x101767) ?x244833)))))
 (let ((?x295885 (concat ((_ extract 63 56) ?x101767) ?x79498)))
 (let ((?x252914 (concat ((_ extract 31 24) ?x295885) (concat ((_ extract 23 16) ?x295885) (concat ((_ extract 15 8) ?x295885) ((_ extract 7 0) ?x295885))))))
 (let ((?x379234 (concat ((_ extract 55 48) ?x295885) (concat ((_ extract 47 40) ?x295885) (concat ((_ extract 39 32) ?x295885) ?x252914)))))
 (let ((?x7270 (concat ((_ extract 63 56) ?x295885) ?x379234)))
 (let ((?x260252 (concat ((_ extract 31 24) ?x7270) (concat ((_ extract 23 16) ?x7270) (concat ((_ extract 15 8) ?x7270) ((_ extract 7 0) ?x7270))))))
 (let ((?x268026 (concat ((_ extract 55 48) ?x7270) (concat ((_ extract 47 40) ?x7270) (concat ((_ extract 39 32) ?x7270) ?x260252)))))
 (let ((?x339629 (concat ((_ extract 63 56) ?x7270) ?x268026)))
 (let ((?x79756 (concat ((_ extract 31 24) ?x339629) (concat ((_ extract 23 16) ?x339629) (concat ((_ extract 15 8) ?x339629) ((_ extract 7 0) ?x339629))))))
 (let ((?x24660 (concat ((_ extract 55 48) ?x339629) (concat ((_ extract 47 40) ?x339629) (concat ((_ extract 39 32) ?x339629) ?x79756)))))
 (let ((?x147847 (concat ((_ extract 63 56) ?x339629) ?x24660)))
 (let ((?x204174 (concat ((_ extract 31 24) ?x147847) (concat ((_ extract 23 16) ?x147847) (concat ((_ extract 15 8) ?x147847) ((_ extract 7 0) ?x147847))))))
 (let ((?x309692 (concat ((_ extract 55 48) ?x147847) (concat ((_ extract 47 40) ?x147847) (concat ((_ extract 39 32) ?x147847) ?x204174)))))
 (let ((?x245395 (concat ((_ extract 63 56) ?x147847) ?x309692)))
 (let ((?x320857 (bvadd ?x245395 (_ bv2 64))))
 (let ((?x35872 (concat ((_ extract 31 24) ?x320857) (concat ((_ extract 23 16) ?x320857) (concat ((_ extract 15 8) ?x320857) ((_ extract 7 0) ?x320857))))))
 (let ((?x130076 (concat ((_ extract 55 48) ?x320857) (concat ((_ extract 47 40) ?x320857) (concat ((_ extract 39 32) ?x320857) ?x35872)))))
 (let ((?x11377 (concat ((_ extract 63 56) ?x320857) ?x130076)))
 (let ((?x327781 (concat ((_ extract 23 16) (bvadd ?x11377 (_ bv132 64))) (concat ((_ extract 15 8) (bvadd ?x11377 (_ bv132 64))) ((_ extract 7 0) (bvadd ?x11377 (_ bv132 64)))))))
 (let ((?x375112 (concat ((_ extract 39 32) (bvadd ?x11377 (_ bv132 64))) (concat ((_ extract 31 24) (bvadd ?x11377 (_ bv132 64))) ?x327781))))
 (let ((?x290758 (concat ((_ extract 55 48) (bvadd ?x11377 (_ bv132 64))) (concat ((_ extract 47 40) (bvadd ?x11377 (_ bv132 64))) ?x375112))))
 (let ((?x45168 (concat ((_ extract 63 56) (bvadd ?x11377 (_ bv132 64))) ?x290758)))
 (not (bvslt ?x45168 ?x11377)))))))))))))))))))))))))))
(assert
 (let ((?x101767 ((_ zero_extend 32) (concat stdin7 (concat stdin6 (concat stdin5 stdin4))))))
 (let ((?x244833 (concat ((_ extract 31 24) ?x101767) (concat ((_ extract 23 16) ?x101767) (concat ((_ extract 15 8) ?x101767) ((_ extract 7 0) ?x101767))))))
 (let ((?x79498 (concat ((_ extract 55 48) ?x101767) (concat ((_ extract 47 40) ?x101767) (concat ((_ extract 39 32) ?x101767) ?x244833)))))
 (let ((?x295885 (concat ((_ extract 63 56) ?x101767) ?x79498)))
 (let ((?x252914 (concat ((_ extract 31 24) ?x295885) (concat ((_ extract 23 16) ?x295885) (concat ((_ extract 15 8) ?x295885) ((_ extract 7 0) ?x295885))))))
 (let ((?x379234 (concat ((_ extract 55 48) ?x295885) (concat ((_ extract 47 40) ?x295885) (concat ((_ extract 39 32) ?x295885) ?x252914)))))
 (let ((?x7270 (concat ((_ extract 63 56) ?x295885) ?x379234)))
 (let ((?x260252 (concat ((_ extract 31 24) ?x7270) (concat ((_ extract 23 16) ?x7270) (concat ((_ extract 15 8) ?x7270) ((_ extract 7 0) ?x7270))))))
 (let ((?x268026 (concat ((_ extract 55 48) ?x7270) (concat ((_ extract 47 40) ?x7270) (concat ((_ extract 39 32) ?x7270) ?x260252)))))
 (let ((?x339629 (concat ((_ extract 63 56) ?x7270) ?x268026)))
 (let ((?x79756 (concat ((_ extract 31 24) ?x339629) (concat ((_ extract 23 16) ?x339629) (concat ((_ extract 15 8) ?x339629) ((_ extract 7 0) ?x339629))))))
 (let ((?x24660 (concat ((_ extract 55 48) ?x339629) (concat ((_ extract 47 40) ?x339629) (concat ((_ extract 39 32) ?x339629) ?x79756)))))
 (let ((?x147847 (concat ((_ extract 63 56) ?x339629) ?x24660)))
 (let ((?x204174 (concat ((_ extract 31 24) ?x147847) (concat ((_ extract 23 16) ?x147847) (concat ((_ extract 15 8) ?x147847) ((_ extract 7 0) ?x147847))))))
 (let ((?x309692 (concat ((_ extract 55 48) ?x147847) (concat ((_ extract 47 40) ?x147847) (concat ((_ extract 39 32) ?x147847) ?x204174)))))
 (let ((?x245395 (concat ((_ extract 63 56) ?x147847) ?x309692)))
 (let ((?x320857 (bvadd ?x245395 (_ bv2 64))))
 (let ((?x35872 (concat ((_ extract 31 24) ?x320857) (concat ((_ extract 23 16) ?x320857) (concat ((_ extract 15 8) ?x320857) ((_ extract 7 0) ?x320857))))))
 (let ((?x130076 (concat ((_ extract 55 48) ?x320857) (concat ((_ extract 47 40) ?x320857) (concat ((_ extract 39 32) ?x320857) ?x35872)))))
 (let ((?x11377 (concat ((_ extract 63 56) ?x320857) ?x130076)))
 (let ((?x191270 (bvadd ?x11377 (_ bv132 64))))
 (let ((?x336412 (concat ((_ extract 31 24) ?x191270) (concat ((_ extract 23 16) ?x191270) (concat ((_ extract 15 8) ?x191270) ((_ extract 7 0) ?x191270))))))
 (let ((?x290758 (concat ((_ extract 55 48) ?x191270) (concat ((_ extract 47 40) ?x191270) (concat ((_ extract 39 32) ?x191270) ?x336412)))))
 (let ((?x45168 (concat ((_ extract 63 56) ?x191270) ?x290758)))
 (not (bvslt ?x45168 (_ bv132 64))))))))))))))))))))))))))))
(assert
 (let ((?x101767 ((_ zero_extend 32) (concat stdin7 (concat stdin6 (concat stdin5 stdin4))))))
 (let ((?x244833 (concat ((_ extract 31 24) ?x101767) (concat ((_ extract 23 16) ?x101767) (concat ((_ extract 15 8) ?x101767) ((_ extract 7 0) ?x101767))))))
 (let ((?x79498 (concat ((_ extract 55 48) ?x101767) (concat ((_ extract 47 40) ?x101767) (concat ((_ extract 39 32) ?x101767) ?x244833)))))
 (let ((?x295885 (concat ((_ extract 63 56) ?x101767) ?x79498)))
 (let ((?x252914 (concat ((_ extract 31 24) ?x295885) (concat ((_ extract 23 16) ?x295885) (concat ((_ extract 15 8) ?x295885) ((_ extract 7 0) ?x295885))))))
 (let ((?x379234 (concat ((_ extract 55 48) ?x295885) (concat ((_ extract 47 40) ?x295885) (concat ((_ extract 39 32) ?x295885) ?x252914)))))
 (let ((?x7270 (concat ((_ extract 63 56) ?x295885) ?x379234)))
 (let ((?x260252 (concat ((_ extract 31 24) ?x7270) (concat ((_ extract 23 16) ?x7270) (concat ((_ extract 15 8) ?x7270) ((_ extract 7 0) ?x7270))))))
 (let ((?x268026 (concat ((_ extract 55 48) ?x7270) (concat ((_ extract 47 40) ?x7270) (concat ((_ extract 39 32) ?x7270) ?x260252)))))
 (let ((?x339629 (concat ((_ extract 63 56) ?x7270) ?x268026)))
 (let ((?x79756 (concat ((_ extract 31 24) ?x339629) (concat ((_ extract 23 16) ?x339629) (concat ((_ extract 15 8) ?x339629) ((_ extract 7 0) ?x339629))))))
 (let ((?x24660 (concat ((_ extract 55 48) ?x339629) (concat ((_ extract 47 40) ?x339629) (concat ((_ extract 39 32) ?x339629) ?x79756)))))
 (let ((?x147847 (concat ((_ extract 63 56) ?x339629) ?x24660)))
 (let ((?x204174 (concat ((_ extract 31 24) ?x147847) (concat ((_ extract 23 16) ?x147847) (concat ((_ extract 15 8) ?x147847) ((_ extract 7 0) ?x147847))))))
 (let ((?x309692 (concat ((_ extract 55 48) ?x147847) (concat ((_ extract 47 40) ?x147847) (concat ((_ extract 39 32) ?x147847) ?x204174)))))
 (let ((?x245395 (concat ((_ extract 63 56) ?x147847) ?x309692)))
 (let ((?x320857 (bvadd ?x245395 (_ bv2 64))))
 (let ((?x35872 (concat ((_ extract 31 24) ?x320857) (concat ((_ extract 23 16) ?x320857) (concat ((_ extract 15 8) ?x320857) ((_ extract 7 0) ?x320857))))))
 (let ((?x130076 (concat ((_ extract 55 48) ?x320857) (concat ((_ extract 47 40) ?x320857) (concat ((_ extract 39 32) ?x320857) ?x35872)))))
 (let ((?x11377 (concat ((_ extract 63 56) ?x320857) ?x130076)))
 (let ((?x191270 (bvadd ?x11377 (_ bv132 64))))
 (let ((?x336412 (concat ((_ extract 31 24) ?x191270) (concat ((_ extract 23 16) ?x191270) (concat ((_ extract 15 8) ?x191270) ((_ extract 7 0) ?x191270))))))
 (let ((?x290758 (concat ((_ extract 55 48) ?x191270) (concat ((_ extract 47 40) ?x191270) (concat ((_ extract 39 32) ?x191270) ?x336412)))))
 (let ((?x45168 (concat ((_ extract 63 56) ?x191270) ?x290758)))
 (not (bvsgt ?x45168 (_ bv8390 64))))))))))))))))))))))))))))
(assert
 (let ((?x101767 ((_ zero_extend 32) (concat stdin7 (concat stdin6 (concat stdin5 stdin4))))))
 (let ((?x244833 (concat ((_ extract 31 24) ?x101767) (concat ((_ extract 23 16) ?x101767) (concat ((_ extract 15 8) ?x101767) ((_ extract 7 0) ?x101767))))))
 (let ((?x79498 (concat ((_ extract 55 48) ?x101767) (concat ((_ extract 47 40) ?x101767) (concat ((_ extract 39 32) ?x101767) ?x244833)))))
 (let ((?x295885 (concat ((_ extract 63 56) ?x101767) ?x79498)))
 (let ((?x252914 (concat ((_ extract 31 24) ?x295885) (concat ((_ extract 23 16) ?x295885) (concat ((_ extract 15 8) ?x295885) ((_ extract 7 0) ?x295885))))))
 (let ((?x379234 (concat ((_ extract 55 48) ?x295885) (concat ((_ extract 47 40) ?x295885) (concat ((_ extract 39 32) ?x295885) ?x252914)))))
 (let ((?x7270 (concat ((_ extract 63 56) ?x295885) ?x379234)))
 (let ((?x260252 (concat ((_ extract 31 24) ?x7270) (concat ((_ extract 23 16) ?x7270) (concat ((_ extract 15 8) ?x7270) ((_ extract 7 0) ?x7270))))))
 (let ((?x268026 (concat ((_ extract 55 48) ?x7270) (concat ((_ extract 47 40) ?x7270) (concat ((_ extract 39 32) ?x7270) ?x260252)))))
 (let ((?x339629 (concat ((_ extract 63 56) ?x7270) ?x268026)))
 (let ((?x79756 (concat ((_ extract 31 24) ?x339629) (concat ((_ extract 23 16) ?x339629) (concat ((_ extract 15 8) ?x339629) ((_ extract 7 0) ?x339629))))))
 (let ((?x24660 (concat ((_ extract 55 48) ?x339629) (concat ((_ extract 47 40) ?x339629) (concat ((_ extract 39 32) ?x339629) ?x79756)))))
 (let ((?x147847 (concat ((_ extract 63 56) ?x339629) ?x24660)))
 (let ((?x204174 (concat ((_ extract 31 24) ?x147847) (concat ((_ extract 23 16) ?x147847) (concat ((_ extract 15 8) ?x147847) ((_ extract 7 0) ?x147847))))))
 (let ((?x309692 (concat ((_ extract 55 48) ?x147847) (concat ((_ extract 47 40) ?x147847) (concat ((_ extract 39 32) ?x147847) ?x204174)))))
 (let ((?x245395 (concat ((_ extract 63 56) ?x147847) ?x309692)))
 (let ((?x320857 (bvadd ?x245395 (_ bv2 64))))
 (let ((?x35872 (concat ((_ extract 31 24) ?x320857) (concat ((_ extract 23 16) ?x320857) (concat ((_ extract 15 8) ?x320857) ((_ extract 7 0) ?x320857))))))
 (let ((?x130076 (concat ((_ extract 55 48) ?x320857) (concat ((_ extract 47 40) ?x320857) (concat ((_ extract 39 32) ?x320857) ?x35872)))))
 (let ((?x11377 (concat ((_ extract 63 56) ?x320857) ?x130076)))
 (let ((?x164879 (bvmul ?x11377 (_ bv1 64))))
 (let ((?x262523 (bvadd ?x164879 (_ bv140653990457344 64))))
 (let ((?x44042 (concat ((_ extract 31 24) ?x262523) (concat ((_ extract 23 16) ?x262523) (concat ((_ extract 15 8) ?x262523) ((_ extract 7 0) ?x262523))))))
 (let ((?x178498 (concat ((_ extract 55 48) ?x262523) (concat ((_ extract 47 40) ?x262523) (concat ((_ extract 39 32) ?x262523) ?x44042)))))
 (= (concat ((_ extract 63 56) ?x262523) ?x178498) (_ bv140653990465576 64)))))))))))))))))))))))))))
(assert
 (let ((?x101767 ((_ zero_extend 32) (concat stdin7 (concat stdin6 (concat stdin5 stdin4))))))
 (let ((?x244833 (concat ((_ extract 31 24) ?x101767) (concat ((_ extract 23 16) ?x101767) (concat ((_ extract 15 8) ?x101767) ((_ extract 7 0) ?x101767))))))
 (let ((?x79498 (concat ((_ extract 55 48) ?x101767) (concat ((_ extract 47 40) ?x101767) (concat ((_ extract 39 32) ?x101767) ?x244833)))))
 (let ((?x295885 (concat ((_ extract 63 56) ?x101767) ?x79498)))
 (let ((?x252914 (concat ((_ extract 31 24) ?x295885) (concat ((_ extract 23 16) ?x295885) (concat ((_ extract 15 8) ?x295885) ((_ extract 7 0) ?x295885))))))
 (let ((?x379234 (concat ((_ extract 55 48) ?x295885) (concat ((_ extract 47 40) ?x295885) (concat ((_ extract 39 32) ?x295885) ?x252914)))))
 (let ((?x7270 (concat ((_ extract 63 56) ?x295885) ?x379234)))
 (let ((?x260252 (concat ((_ extract 31 24) ?x7270) (concat ((_ extract 23 16) ?x7270) (concat ((_ extract 15 8) ?x7270) ((_ extract 7 0) ?x7270))))))
 (let ((?x268026 (concat ((_ extract 55 48) ?x7270) (concat ((_ extract 47 40) ?x7270) (concat ((_ extract 39 32) ?x7270) ?x260252)))))
 (let ((?x339629 (concat ((_ extract 63 56) ?x7270) ?x268026)))
 (let ((?x79756 (concat ((_ extract 31 24) ?x339629) (concat ((_ extract 23 16) ?x339629) (concat ((_ extract 15 8) ?x339629) ((_ extract 7 0) ?x339629))))))
 (let ((?x24660 (concat ((_ extract 55 48) ?x339629) (concat ((_ extract 47 40) ?x339629) (concat ((_ extract 39 32) ?x339629) ?x79756)))))
 (let ((?x147847 (concat ((_ extract 63 56) ?x339629) ?x24660)))
 (let ((?x204174 (concat ((_ extract 31 24) ?x147847) (concat ((_ extract 23 16) ?x147847) (concat ((_ extract 15 8) ?x147847) ((_ extract 7 0) ?x147847))))))
 (let ((?x309692 (concat ((_ extract 55 48) ?x147847) (concat ((_ extract 47 40) ?x147847) (concat ((_ extract 39 32) ?x147847) ?x204174)))))
 (let ((?x245395 (concat ((_ extract 63 56) ?x147847) ?x309692)))
 (let ((?x320857 (bvadd ?x245395 (_ bv2 64))))
 (let ((?x35872 (concat ((_ extract 31 24) ?x320857) (concat ((_ extract 23 16) ?x320857) (concat ((_ extract 15 8) ?x320857) ((_ extract 7 0) ?x320857))))))
 (let ((?x130076 (concat ((_ extract 55 48) ?x320857) (concat ((_ extract 47 40) ?x320857) (concat ((_ extract 39 32) ?x320857) ?x35872)))))
 (let ((?x11377 (concat ((_ extract 63 56) ?x320857) ?x130076)))
 (let ((?x191270 (bvadd ?x11377 (_ bv132 64))))
 (let ((?x336412 (concat ((_ extract 31 24) ?x191270) (concat ((_ extract 23 16) ?x191270) (concat ((_ extract 15 8) ?x191270) ((_ extract 7 0) ?x191270))))))
 (let ((?x290758 (concat ((_ extract 55 48) ?x191270) (concat ((_ extract 47 40) ?x191270) (concat ((_ extract 39 32) ?x191270) ?x336412)))))
 (let ((?x45168 (concat ((_ extract 63 56) ?x191270) ?x290758)))
 (let ((?x96060 (concat ((_ extract 23 16) (bvadd ?x45168 (_ bv4 64))) (concat ((_ extract 15 8) (bvadd ?x45168 (_ bv4 64))) ((_ extract 7 0) (bvadd ?x45168 (_ bv4 64)))))))
 (let ((?x62322 (concat ((_ extract 39 32) (bvadd ?x45168 (_ bv4 64))) (concat ((_ extract 31 24) (bvadd ?x45168 (_ bv4 64))) ?x96060))))
 (let ((?x6447 (concat ((_ extract 55 48) (bvadd ?x45168 (_ bv4 64))) (concat ((_ extract 47 40) (bvadd ?x45168 (_ bv4 64))) ?x62322))))
 (let ((?x291720 (concat ((_ extract 63 56) (bvadd ?x45168 (_ bv4 64))) ?x6447)))
 (not (bvslt ?x291720 ?x45168)))))))))))))))))))))))))))))))
(assert
 (let ((?x101767 ((_ zero_extend 32) (concat stdin7 (concat stdin6 (concat stdin5 stdin4))))))
 (let ((?x244833 (concat ((_ extract 31 24) ?x101767) (concat ((_ extract 23 16) ?x101767) (concat ((_ extract 15 8) ?x101767) ((_ extract 7 0) ?x101767))))))
 (let ((?x79498 (concat ((_ extract 55 48) ?x101767) (concat ((_ extract 47 40) ?x101767) (concat ((_ extract 39 32) ?x101767) ?x244833)))))
 (let ((?x295885 (concat ((_ extract 63 56) ?x101767) ?x79498)))
 (let ((?x252914 (concat ((_ extract 31 24) ?x295885) (concat ((_ extract 23 16) ?x295885) (concat ((_ extract 15 8) ?x295885) ((_ extract 7 0) ?x295885))))))
 (let ((?x379234 (concat ((_ extract 55 48) ?x295885) (concat ((_ extract 47 40) ?x295885) (concat ((_ extract 39 32) ?x295885) ?x252914)))))
 (let ((?x7270 (concat ((_ extract 63 56) ?x295885) ?x379234)))
 (let ((?x260252 (concat ((_ extract 31 24) ?x7270) (concat ((_ extract 23 16) ?x7270) (concat ((_ extract 15 8) ?x7270) ((_ extract 7 0) ?x7270))))))
 (let ((?x268026 (concat ((_ extract 55 48) ?x7270) (concat ((_ extract 47 40) ?x7270) (concat ((_ extract 39 32) ?x7270) ?x260252)))))
 (let ((?x339629 (concat ((_ extract 63 56) ?x7270) ?x268026)))
 (let ((?x79756 (concat ((_ extract 31 24) ?x339629) (concat ((_ extract 23 16) ?x339629) (concat ((_ extract 15 8) ?x339629) ((_ extract 7 0) ?x339629))))))
 (let ((?x24660 (concat ((_ extract 55 48) ?x339629) (concat ((_ extract 47 40) ?x339629) (concat ((_ extract 39 32) ?x339629) ?x79756)))))
 (let ((?x147847 (concat ((_ extract 63 56) ?x339629) ?x24660)))
 (let ((?x204174 (concat ((_ extract 31 24) ?x147847) (concat ((_ extract 23 16) ?x147847) (concat ((_ extract 15 8) ?x147847) ((_ extract 7 0) ?x147847))))))
 (let ((?x309692 (concat ((_ extract 55 48) ?x147847) (concat ((_ extract 47 40) ?x147847) (concat ((_ extract 39 32) ?x147847) ?x204174)))))
 (let ((?x245395 (concat ((_ extract 63 56) ?x147847) ?x309692)))
 (let ((?x320857 (bvadd ?x245395 (_ bv2 64))))
 (let ((?x35872 (concat ((_ extract 31 24) ?x320857) (concat ((_ extract 23 16) ?x320857) (concat ((_ extract 15 8) ?x320857) ((_ extract 7 0) ?x320857))))))
 (let ((?x130076 (concat ((_ extract 55 48) ?x320857) (concat ((_ extract 47 40) ?x320857) (concat ((_ extract 39 32) ?x320857) ?x35872)))))
 (let ((?x11377 (concat ((_ extract 63 56) ?x320857) ?x130076)))
 (let ((?x191270 (bvadd ?x11377 (_ bv132 64))))
 (let ((?x336412 (concat ((_ extract 31 24) ?x191270) (concat ((_ extract 23 16) ?x191270) (concat ((_ extract 15 8) ?x191270) ((_ extract 7 0) ?x191270))))))
 (let ((?x290758 (concat ((_ extract 55 48) ?x191270) (concat ((_ extract 47 40) ?x191270) (concat ((_ extract 39 32) ?x191270) ?x336412)))))
 (let ((?x45168 (concat ((_ extract 63 56) ?x191270) ?x290758)))
 (let ((?x279975 (bvadd ?x45168 (_ bv4 64))))
 (let ((?x255867 (concat ((_ extract 31 24) ?x279975) (concat ((_ extract 23 16) ?x279975) (concat ((_ extract 15 8) ?x279975) ((_ extract 7 0) ?x279975))))))
 (let ((?x6447 (concat ((_ extract 55 48) ?x279975) (concat ((_ extract 47 40) ?x279975) (concat ((_ extract 39 32) ?x279975) ?x255867)))))
 (let ((?x291720 (concat ((_ extract 63 56) ?x279975) ?x6447)))
 (not (bvslt ?x291720 (_ bv4 64))))))))))))))))))))))))))))))))
(assert
 (let ((?x101767 ((_ zero_extend 32) (concat stdin7 (concat stdin6 (concat stdin5 stdin4))))))
 (let ((?x244833 (concat ((_ extract 31 24) ?x101767) (concat ((_ extract 23 16) ?x101767) (concat ((_ extract 15 8) ?x101767) ((_ extract 7 0) ?x101767))))))
 (let ((?x79498 (concat ((_ extract 55 48) ?x101767) (concat ((_ extract 47 40) ?x101767) (concat ((_ extract 39 32) ?x101767) ?x244833)))))
 (let ((?x295885 (concat ((_ extract 63 56) ?x101767) ?x79498)))
 (let ((?x252914 (concat ((_ extract 31 24) ?x295885) (concat ((_ extract 23 16) ?x295885) (concat ((_ extract 15 8) ?x295885) ((_ extract 7 0) ?x295885))))))
 (let ((?x379234 (concat ((_ extract 55 48) ?x295885) (concat ((_ extract 47 40) ?x295885) (concat ((_ extract 39 32) ?x295885) ?x252914)))))
 (let ((?x7270 (concat ((_ extract 63 56) ?x295885) ?x379234)))
 (let ((?x260252 (concat ((_ extract 31 24) ?x7270) (concat ((_ extract 23 16) ?x7270) (concat ((_ extract 15 8) ?x7270) ((_ extract 7 0) ?x7270))))))
 (let ((?x268026 (concat ((_ extract 55 48) ?x7270) (concat ((_ extract 47 40) ?x7270) (concat ((_ extract 39 32) ?x7270) ?x260252)))))
 (let ((?x339629 (concat ((_ extract 63 56) ?x7270) ?x268026)))
 (let ((?x79756 (concat ((_ extract 31 24) ?x339629) (concat ((_ extract 23 16) ?x339629) (concat ((_ extract 15 8) ?x339629) ((_ extract 7 0) ?x339629))))))
 (let ((?x24660 (concat ((_ extract 55 48) ?x339629) (concat ((_ extract 47 40) ?x339629) (concat ((_ extract 39 32) ?x339629) ?x79756)))))
 (let ((?x147847 (concat ((_ extract 63 56) ?x339629) ?x24660)))
 (let ((?x204174 (concat ((_ extract 31 24) ?x147847) (concat ((_ extract 23 16) ?x147847) (concat ((_ extract 15 8) ?x147847) ((_ extract 7 0) ?x147847))))))
 (let ((?x309692 (concat ((_ extract 55 48) ?x147847) (concat ((_ extract 47 40) ?x147847) (concat ((_ extract 39 32) ?x147847) ?x204174)))))
 (let ((?x245395 (concat ((_ extract 63 56) ?x147847) ?x309692)))
 (let ((?x320857 (bvadd ?x245395 (_ bv2 64))))
 (let ((?x35872 (concat ((_ extract 31 24) ?x320857) (concat ((_ extract 23 16) ?x320857) (concat ((_ extract 15 8) ?x320857) ((_ extract 7 0) ?x320857))))))
 (let ((?x130076 (concat ((_ extract 55 48) ?x320857) (concat ((_ extract 47 40) ?x320857) (concat ((_ extract 39 32) ?x320857) ?x35872)))))
 (let ((?x11377 (concat ((_ extract 63 56) ?x320857) ?x130076)))
 (let ((?x191270 (bvadd ?x11377 (_ bv132 64))))
 (let ((?x336412 (concat ((_ extract 31 24) ?x191270) (concat ((_ extract 23 16) ?x191270) (concat ((_ extract 15 8) ?x191270) ((_ extract 7 0) ?x191270))))))
 (let ((?x290758 (concat ((_ extract 55 48) ?x191270) (concat ((_ extract 47 40) ?x191270) (concat ((_ extract 39 32) ?x191270) ?x336412)))))
 (let ((?x45168 (concat ((_ extract 63 56) ?x191270) ?x290758)))
 (let ((?x279975 (bvadd ?x45168 (_ bv4 64))))
 (let ((?x255867 (concat ((_ extract 31 24) ?x279975) (concat ((_ extract 23 16) ?x279975) (concat ((_ extract 15 8) ?x279975) ((_ extract 7 0) ?x279975))))))
 (let ((?x6447 (concat ((_ extract 55 48) ?x279975) (concat ((_ extract 47 40) ?x279975) (concat ((_ extract 39 32) ?x279975) ?x255867)))))
 (let ((?x291720 (concat ((_ extract 63 56) ?x279975) ?x6447)))
 (not (bvsgt ?x291720 (_ bv8390 64))))))))))))))))))))))))))))))))
(assert
 (let ((?x101767 ((_ zero_extend 32) (concat stdin7 (concat stdin6 (concat stdin5 stdin4))))))
 (let ((?x244833 (concat ((_ extract 31 24) ?x101767) (concat ((_ extract 23 16) ?x101767) (concat ((_ extract 15 8) ?x101767) ((_ extract 7 0) ?x101767))))))
 (let ((?x79498 (concat ((_ extract 55 48) ?x101767) (concat ((_ extract 47 40) ?x101767) (concat ((_ extract 39 32) ?x101767) ?x244833)))))
 (let ((?x295885 (concat ((_ extract 63 56) ?x101767) ?x79498)))
 (let ((?x252914 (concat ((_ extract 31 24) ?x295885) (concat ((_ extract 23 16) ?x295885) (concat ((_ extract 15 8) ?x295885) ((_ extract 7 0) ?x295885))))))
 (let ((?x379234 (concat ((_ extract 55 48) ?x295885) (concat ((_ extract 47 40) ?x295885) (concat ((_ extract 39 32) ?x295885) ?x252914)))))
 (let ((?x7270 (concat ((_ extract 63 56) ?x295885) ?x379234)))
 (let ((?x260252 (concat ((_ extract 31 24) ?x7270) (concat ((_ extract 23 16) ?x7270) (concat ((_ extract 15 8) ?x7270) ((_ extract 7 0) ?x7270))))))
 (let ((?x268026 (concat ((_ extract 55 48) ?x7270) (concat ((_ extract 47 40) ?x7270) (concat ((_ extract 39 32) ?x7270) ?x260252)))))
 (let ((?x339629 (concat ((_ extract 63 56) ?x7270) ?x268026)))
 (let ((?x79756 (concat ((_ extract 31 24) ?x339629) (concat ((_ extract 23 16) ?x339629) (concat ((_ extract 15 8) ?x339629) ((_ extract 7 0) ?x339629))))))
 (let ((?x24660 (concat ((_ extract 55 48) ?x339629) (concat ((_ extract 47 40) ?x339629) (concat ((_ extract 39 32) ?x339629) ?x79756)))))
 (let ((?x147847 (concat ((_ extract 63 56) ?x339629) ?x24660)))
 (let ((?x204174 (concat ((_ extract 31 24) ?x147847) (concat ((_ extract 23 16) ?x147847) (concat ((_ extract 15 8) ?x147847) ((_ extract 7 0) ?x147847))))))
 (let ((?x309692 (concat ((_ extract 55 48) ?x147847) (concat ((_ extract 47 40) ?x147847) (concat ((_ extract 39 32) ?x147847) ?x204174)))))
 (let ((?x245395 (concat ((_ extract 63 56) ?x147847) ?x309692)))
 (let ((?x320857 (bvadd ?x245395 (_ bv2 64))))
 (let ((?x35872 (concat ((_ extract 31 24) ?x320857) (concat ((_ extract 23 16) ?x320857) (concat ((_ extract 15 8) ?x320857) ((_ extract 7 0) ?x320857))))))
 (let ((?x130076 (concat ((_ extract 55 48) ?x320857) (concat ((_ extract 47 40) ?x320857) (concat ((_ extract 39 32) ?x320857) ?x35872)))))
 (let ((?x11377 (concat ((_ extract 63 56) ?x320857) ?x130076)))
 (let ((?x191270 (bvadd ?x11377 (_ bv132 64))))
 (let ((?x336412 (concat ((_ extract 31 24) ?x191270) (concat ((_ extract 23 16) ?x191270) (concat ((_ extract 15 8) ?x191270) ((_ extract 7 0) ?x191270))))))
 (let ((?x290758 (concat ((_ extract 55 48) ?x191270) (concat ((_ extract 47 40) ?x191270) (concat ((_ extract 39 32) ?x191270) ?x336412)))))
 (let ((?x45168 (concat ((_ extract 63 56) ?x191270) ?x290758)))
 (let ((?x1060 (bvmul ?x45168 (_ bv1 64))))
 (let ((?x244882 (bvadd ?x1060 (_ bv140653990457344 64))))
 (let ((?x186922 (concat ((_ extract 31 24) ?x244882) (concat ((_ extract 23 16) ?x244882) (concat ((_ extract 15 8) ?x244882) ((_ extract 7 0) ?x244882))))))
 (let ((?x151641 (concat ((_ extract 55 48) ?x244882) (concat ((_ extract 47 40) ?x244882) (concat ((_ extract 39 32) ?x244882) ?x186922)))))
 (= (concat ((_ extract 63 56) ?x244882) ?x151641) (_ bv140653990465708 64)))))))))))))))))))))))))))))))
(check-sat)
